nproducts = 6; % zealot, dragoon, dt, reaver, scout, archon  
profit = [17455 , 16000 , 32000 , 40000 , 6400 , 36000]; % ground DPS
pname = ["zealot", "dragoon", "dark templar", "reaver", "scout", "archon"];

nresources = 3;      % mineral, gas, supply
capacity = [20000, 14000, 760]; % supply*2 to have zergling=1
rname = ["mineral","gas","supply"];

% supply*2 to have zergling=1
consumption= [| 100, 0, 4,
	      | 125, 50, 4, 
              | 125, 100, 4,
              | 200, 100, 8,
              | 275, 125, 6,
              | 100, 300, 8 |];
